NAME : mar30_1000_4
COMMENT : Data set with 30 points
COMMENT : CIn-UFPE
COMMENT : Contributed by Marcelo Lacerda
TYPE : TSP
DIMENSION : 30
EDGE_WEIGHT_TYPE : EUC_2D
NODE_COORD_SECTION
1 729 452
2 322 258
3 866 748
4 626 983
5 132 392
6 875 371
7 396 266
8 262 727
9 544 225
10 271 656
11 626 129
12 636 37
13 962 812
14 800 885
15 89 301
16 854 111
17 243 808
18 977 524
19 382 859
20 216 240
21 73 683
22 559 411
23 369 947
24 869 721
25 297 722
26 63 210
27 847 222
28 554 846
29 271 861
30 692 321
EOF
